Route #1: 43 32 26 4 22 12 13
Route #2: 44 11 60 31 52 57 17 50
Route #3: 39 28 1 16 48 18 35 34
Route #4: 51 47 56 27 21 36 29 58
Route #5: 25 20 6 41 2 49 24
Route #6: 40 8 53 5 54 46
Route #7: 14 23 7 19 9
Route #8: 15 38 3
Route #9: 55 33 42 30 37 45 59 10
Cost 1040
Time 0.09409
